     Program PWSCF v.6.7MaX starts on 12Sep2021 at 23:54:43

     R & G space division:  proc/nbgrp/npool/nimage =      20
     Waiting for input...
     Reading input from standard input

     Current dimensions of program PWSCF are:
     Max number of different atomic species (ntypx) = 10
     Max number of k-points (npk) =  40000
     Max angular momentum in pseudopotentials (lmaxx) =  3
     Message from routine read_pp_mesh:
     mesh size missing, using the one in header
     Message from routine read_pp_mesh:
     mesh size missing, using the one in header

     Subspace diagonalization in iterative solution of the eigenvalue problem:
     a serial algorithm will be used

     Message from routine setup:
     no reason to have ecutrho>4*ecutwfc
     Message from routine setup:
     using ibrav=0 with symmetry is DISCOURAGED, use correct ibrav instead

     bravais-lattice index     =            0
     lattice parameter (alat)  =       7.4847  a.u.
     unit-cell volume          =    1833.6240 (a.u.)^3
     number of atoms/cell      =            2
     number of atomic types    =            2
     number of electrons       =        30.00
     number of Kohn-Sham states=           24
     kinetic-energy cutoff     =      50.0000  Ry
     charge density cutoff     =     600.0000  Ry
     scf convergence threshold =      1.0E-09
     mixing beta               =       0.7000
     number of iterations used =            8  plain     mixing
     Exchange-correlation= PBE
                           (   1   4   3   4   0   0   0)

     celldm(1)=   7.484717  celldm(2)=   0.000000  celldm(3)=   0.000000
     celldm(4)=   0.000000  celldm(5)=   0.000000  celldm(6)=   0.000000

     crystal axes: (cart. coord. in units of alat)
               a(1) = (   1.000000   0.000000   0.000000 )
               a(2) = (   0.500000   0.866025   0.000000 )
               a(3) = (   0.000000   0.000000   5.049559 )

     reciprocal axes: (cart. coord. in units 2 pi/alat)
               b(1) = (  1.000000 -0.577350  0.000000 )
               b(2) = (  0.000000  1.154701  0.000000 )
               b(3) = (  0.000000  0.000000  0.198037 )

     PseudoPot. # 1 for Ge read from file:
     ../../pseudo/Ge_ONCV_PBE-1.2.upf
     MD5 check sum: 9f45083245c564cb2163622d60d05ca9
     Pseudo is Norm-conserving, Zval = 14.0
     Generated using ONCVPSP code by D. R. Hamann
     Using radial grid of  602 points,  6 beta functions with:
                l(1) =   0
                l(2) =   0
                l(3) =   1
                l(4) =   1
                l(5) =   2
                l(6) =   2

     PseudoPot. # 2 for Te read from file:
     ../../pseudo/Te_ONCV_PBE-1.2.upf
     MD5 check sum: dd4de4dac1e38587f63aaf3700bb29d3
     Pseudo is Norm-conserving, Zval = 16.0
     Generated using ONCVPSP code by D. R. Hamann
     Using radial grid of  602 points,  6 beta functions with:
                l(1) =   0
                l(2) =   0
                l(3) =   1
                l(4) =   1
                l(5) =   2
                l(6) =   2

     atomic species   valence    mass     pseudopotential
        Ge            14.00    72.63000     Ge( 1.00)
        Te            16.00   127.60000     Te( 1.00)

      6 Sym. Ops. (no inversion) found

   Cartesian axes

     site n.     atom                  positions (alat units)
         1           Ge  tau(   1) = (   0.0000000   0.0000000   0.0000000  )
         2           Te  tau(   2) = (   1.0000000   0.5773503   0.3928870  )

     number of k points=    90
                       cart. coord. in units 2pi/alat
        k(    1) = (   0.0277778   0.0160375  -0.0990185), wk =   0.0123457
        k(    2) = (   0.0277778   0.0801875  -0.0990185), wk =   0.0246914
        k(    3) = (   0.0277778   0.1443376  -0.0990185), wk =   0.0246914
        k(    4) = (   0.0277778   0.2084876  -0.0990185), wk =   0.0246914
        k(    5) = (   0.0277778   0.2726376  -0.0990185), wk =   0.0246914
        k(    6) = (   0.0277778   0.3367877  -0.0990185), wk =   0.0246914
        k(    7) = (   0.0277778   0.4009377  -0.0990185), wk =   0.0246914
        k(    8) = (   0.0277778   0.4650877  -0.0990185), wk =   0.0246914
        k(    9) = (   0.0277778   0.5292377  -0.0990185), wk =   0.0246914
        k(   10) = (   0.0277778  -0.5613128  -0.0990185), wk =   0.0246914
        k(   11) = (   0.0277778  -0.4971627  -0.0990185), wk =   0.0246914
        k(   12) = (   0.0277778  -0.4330127  -0.0990185), wk =   0.0246914
        k(   13) = (   0.0277778  -0.3688627  -0.0990185), wk =   0.0246914
        k(   14) = (   0.0277778  -0.3047126  -0.0990185), wk =   0.0246914
        k(   15) = (   0.0277778  -0.2405626  -0.0990185), wk =   0.0246914
        k(   16) = (   0.0277778  -0.1764126  -0.0990185), wk =   0.0246914
        k(   17) = (   0.0277778  -0.1122626  -0.0990185), wk =   0.0246914
        k(   18) = (   0.0277778  -0.0481125  -0.0990185), wk =   0.0123457
        k(   19) = (   0.0833333   0.0481125  -0.0990185), wk =   0.0123457
        k(   20) = (   0.0833333   0.1122626  -0.0990185), wk =   0.0246914
        k(   21) = (   0.0833333   0.1764126  -0.0990185), wk =   0.0246914
        k(   22) = (   0.0833333   0.2405626  -0.0990185), wk =   0.0246914
        k(   23) = (   0.0833333   0.3047126  -0.0990185), wk =   0.0246914
        k(   24) = (   0.0833333   0.3688627  -0.0990185), wk =   0.0246914
        k(   25) = (   0.0833333   0.4330127  -0.0990185), wk =   0.0246914
        k(   26) = (   0.0833333   0.4971627  -0.0990185), wk =   0.0246914
        k(   27) = (   0.0833333  -0.5933878  -0.0990185), wk =   0.0246914
        k(   28) = (   0.0833333  -0.5292377  -0.0990185), wk =   0.0246914
        k(   29) = (   0.0833333  -0.4650877  -0.0990185), wk =   0.0246914
        k(   30) = (   0.0833333  -0.4009377  -0.0990185), wk =   0.0246914
        k(   31) = (   0.0833333  -0.3367877  -0.0990185), wk =   0.0246914
        k(   32) = (   0.0833333  -0.2726376  -0.0990185), wk =   0.0246914
        k(   33) = (   0.0833333  -0.2084876  -0.0990185), wk =   0.0246914
        k(   34) = (   0.0833333  -0.1443376  -0.0990185), wk =   0.0123457
        k(   35) = (   0.1388889   0.0801875  -0.0990185), wk =   0.0123457
        k(   36) = (   0.1388889   0.1443376  -0.0990185), wk =   0.0246914
        k(   37) = (   0.1388889   0.2084876  -0.0990185), wk =   0.0246914
        k(   38) = (   0.1388889   0.2726376  -0.0990185), wk =   0.0246914
        k(   39) = (   0.1388889   0.3367877  -0.0990185), wk =   0.0246914
        k(   40) = (   0.1388889   0.4009377  -0.0990185), wk =   0.0246914
        k(   41) = (   0.1388889   0.4650877  -0.0990185), wk =   0.0246914
        k(   42) = (   0.1388889  -0.6254628  -0.0990185), wk =   0.0246914
        k(   43) = (   0.1388889  -0.5613128  -0.0990185), wk =   0.0246914
        k(   44) = (   0.1388889  -0.4971627  -0.0990185), wk =   0.0246914
        k(   45) = (   0.1388889  -0.4330127  -0.0990185), wk =   0.0246914
        k(   46) = (   0.1388889  -0.3688627  -0.0990185), wk =   0.0246914
        k(   47) = (   0.1388889  -0.3047126  -0.0990185), wk =   0.0246914
        k(   48) = (   0.1388889  -0.2405626  -0.0990185), wk =   0.0123457
        k(   49) = (   0.1944444   0.1122626  -0.0990185), wk =   0.0123457
        k(   50) = (   0.1944444   0.1764126  -0.0990185), wk =   0.0246914
        k(   51) = (   0.1944444   0.2405626  -0.0990185), wk =   0.0246914
        k(   52) = (   0.1944444   0.3047126  -0.0990185), wk =   0.0246914
        k(   53) = (   0.1944444   0.3688627  -0.0990185), wk =   0.0246914
        k(   54) = (   0.1944444   0.4330127  -0.0990185), wk =   0.0246914
        k(   55) = (   0.1944444  -0.6575378  -0.0990185), wk =   0.0246914
        k(   56) = (   0.1944444  -0.5933878  -0.0990185), wk =   0.0246914
        k(   57) = (   0.1944444  -0.5292377  -0.0990185), wk =   0.0246914
        k(   58) = (   0.1944444  -0.4650877  -0.0990185), wk =   0.0246914
        k(   59) = (   0.1944444  -0.4009377  -0.0990185), wk =   0.0246914
        k(   60) = (   0.1944444  -0.3367877  -0.0990185), wk =   0.0123457
[...]
        k(   76) = (   0.3055556  -0.6575378  -0.0990185), wk =   0.0246914
        k(   77) = (   0.3055556  -0.5933878  -0.0990185), wk =   0.0246914
        k(   78) = (   0.3055556  -0.5292377  -0.0990185), wk =   0.0123457
        k(   79) = (   0.3611111   0.2084876  -0.0990185), wk =   0.0123457
        k(   80) = (   0.3611111   0.2726376  -0.0990185), wk =   0.0246914
        k(   81) = (   0.3611111   0.3367877  -0.0990185), wk =   0.0246914
        k(   82) = (   0.3611111  -0.7537629  -0.0990185), wk =   0.0246914
        k(   83) = (   0.3611111  -0.6896128  -0.0990185), wk =   0.0246914
        k(   84) = (   0.3611111  -0.6254628  -0.0990185), wk =   0.0123457
        k(   85) = (   0.4166667   0.2405626  -0.0990185), wk =   0.0123457
        k(   86) = (   0.4166667   0.3047126  -0.0990185), wk =   0.0246914
        k(   87) = (   0.4166667  -0.7858379  -0.0990185), wk =   0.0246914
        k(   88) = (   0.4166667  -0.7216878  -0.0990185), wk =   0.0123457
        k(   89) = (   0.4722222   0.2726376  -0.0990185), wk =   0.0123457
        k(   90) = (   0.4722222  -0.8179129  -0.0990185), wk =   0.0123457

     Initial potential from superposition of free atoms

     starting charge   29.90735, renormalised to   30.00000

     negative rho (up, down):  3.472E-04 0.000E+00
     Starting wfcs are random

     Self-consistent Calculation

     iteration #  1     ecut=    50.00 Ry     beta= 0.70
     Davidson diagonalization with overlap
     ethr =  1.00E-02,  avg # of iterations = 10.7

     Threshold (ethr) on eigenvalues was too large:
     Diagonalizing with lowered threshold

     Davidson diagonalization with overlap
     ethr =  7.86E-05,  avg # of iterations =  7.6

     negative rho (up, down):  2.522E-05 0.000E+00

     total energy              =    -316.35186026 Ry
     estimated scf accuracy    <       0.01826677 Ry

[...]

     negative rho (up, down):  1.784E-08 0.000E+00

[...]

     total energy              =    -316.35515781 Ry
     estimated scf accuracy    <          3.4E-09 Ry

     iteration #  9     ecut=    50.00 Ry     beta= 0.70
     Davidson diagonalization with overlap
     ethr =  1.13E-11,  avg # of iterations =  2.5

     End of self-consistent calculation

          k = 0.0278 0.0160-0.0990 ( 11028 PWs)   bands (ev):

   -38.3187 -38.3187 -38.2725 -38.2725 -38.2572 -26.1396 -26.1395 -26.0830
   -26.0830 -26.0623 -14.0634  -8.3213  -2.5468  -2.2495  -2.2017  -0.1463
     1.2580   1.2971   2.6078   2.8908   3.4531   4.4215   5.1983   5.8373

[...]

          k = 0.4722-0.8179-0.0990 ( 10902 PWs)   bands (ev):

   -38.3185 -38.3140 -38.2741 -38.2729 -38.2547 -26.1414 -26.1338 -26.0876
   -26.0841 -26.0590 -12.4899  -9.5067  -4.9782  -3.7928  -3.3671   0.1328
     0.8559   1.9003   3.6903   5.4463   5.5239   5.8553   6.3135   6.5759

     highest occupied, lowest unoccupied level (ev):    -2.2017   -0.3833

!    total energy              =    -316.35515782 Ry
     estimated scf accuracy    <          1.0E-10 Ry

     The total energy is the sum of the following terms:
     one-electron contribution =   -1181.74496984 Ry
     hartree contribution      =     588.03829830 Ry
     xc contribution           =     -35.82531025 Ry
     ewald contribution        =     313.17682398 Ry

     convergence has been achieved in   9 iterations

     Writing output data file ./work/GeTe-mono.save/

     General routines

     Parallel routines

   This run was terminated on:  23:55:14  12Sep2021

   JOB DONE.