     Program PWSCF v.6.7MaX starts on 13Sep2021 at  0:20:51

     R & G space division:  proc/nbgrp/npool/nimage =      20
     Waiting for input...
     Reading input from standard input

     Current dimensions of program PWSCF are:
     Max number of different atomic species (ntypx) = 10
     Max number of k-points (npk) =  40000
     Max angular momentum in pseudopotentials (lmaxx) =  3
     Message from routine read_pp_mesh:
     mesh size missing, using the one in header
     Message from routine read_pp_mesh:
     mesh size missing, using the one in header

     Subspace diagonalization in iterative solution of the eigenvalue problem:
     a serial algorithm will be used

     Message from routine setup:
     no reason to have ecutrho>4*ecutwfc
     Message from routine setup:
     using ibrav=0 with symmetry is DISCOURAGED, use correct ibrav instead

     bravais-lattice index     =            0
     lattice parameter (alat)  =       8.0079  a.u.
     unit-cell volume          =    2506.4848 (a.u.)^3
     number of atoms/cell      =            4
     number of atomic types    =            2
     number of electrons       =        60.00
     number of Kohn-Sham states=           60
     kinetic-energy cutoff     =      50.0000  Ry
     charge density cutoff     =     600.0000  Ry
     scf convergence threshold =      1.0E-09
     mixing beta               =       0.7000
     number of iterations used =            8  plain     mixing
     Exchange-correlation= PBE
                           (   1   4   3   4   0   0   0)

     celldm(1)=   8.007887  celldm(2)=   0.000000  celldm(3)=   0.000000
     celldm(4)=   0.000000  celldm(5)=   0.000000  celldm(6)=   0.000000

     crystal axes: (cart. coord. in units of alat)
               a(1) = (   1.000000   0.000000   0.000000 )
               a(2) = (   0.000000   1.034190   0.000000 )
               a(3) = (   0.000000   0.000000   4.719662 )

     reciprocal axes: (cart. coord. in units 2 pi/alat)
               b(1) = (  1.000000  0.000000  0.000000 )
               b(2) = (  0.000000  0.966940  0.000000 )
               b(3) = (  0.000000  0.000000  0.211880 )

     PseudoPot. # 1 for Ge read from file:
     ../../pseudo/Ge_ONCV_PBE-1.2.upf
     MD5 check sum: 9f45083245c564cb2163622d60d05ca9
     Pseudo is Norm-conserving, Zval = 14.0
     Generated using ONCVPSP code by D. R. Hamann
     Using radial grid of  602 points,  6 beta functions with:
                l(1) =   0
                l(2) =   0
                l(3) =   1
                l(4) =   1
                l(5) =   2
                l(6) =   2

     PseudoPot. # 2 for Te read from file:
     ../../pseudo/Te_ONCV_PBE-1.2.upf
     MD5 check sum: dd4de4dac1e38587f63aaf3700bb29d3
     Pseudo is Norm-conserving, Zval = 16.0
     Generated using ONCVPSP code by D. R. Hamann
     Using radial grid of  602 points,  6 beta functions with:
                l(1) =   0
                l(2) =   0
                l(3) =   1
                l(4) =   1
                l(5) =   2
                l(6) =   2

     atomic species   valence    mass     pseudopotential
        Ge            14.00    72.63000     Ge( 1.00)
        Te            16.00   127.60000     Te( 1.00)

      2 Sym. Ops. (no inversion) found

                                    s                        frac. trans.

      isym =  1     identity

 cryst.   s( 1) = (     1          0          0      )
                  (     0          1          0      )
                  (     0          0          1      )

 cart.    s( 1) = (  1.0000000  0.0000000  0.0000000 )
                  (  0.0000000  1.0000000  0.0000000 )
                  (  0.0000000  0.0000000  1.0000000 )

      isym =  2     inv. 180 deg rotation - cart. axis [1,0,0]

 cryst.   s( 2) = (    -1          0          0      )
                  (     0          1          0      )
                  (     0          0          1      )

 cart.    s( 2) = ( -1.0000000  0.0000000  0.0000000 )
                  (  0.0000000  1.0000000  0.0000000 )
                  (  0.0000000  0.0000000  1.0000000 )

   Cartesian axes

     site n.     atom                  positions (alat units)
         1           Ge  tau(   1) = (   0.0000000   0.4852822   1.6614487  )
         2           Ge  tau(   2) = (   0.5000000   1.0023560   1.0938804  )
         3           Te  tau(   3) = (   0.5000000   0.0318432   1.7374834  )
         4           Te  tau(   4) = (   0.0000000   0.5488986   1.0178653  )

   Crystallographic axes

     site n.     atom                  positions (cryst. coord.)
         1           Ge  tau(   1) = (  0.0000000  0.4692389  0.3520270  )
         2           Ge  tau(   2) = (  0.5000000  0.9692184  0.2317709  )
         3           Te  tau(   3) = (  0.5000000  0.0307905  0.3681372  )
         4           Te  tau(   4) = (  0.0000000  0.5307522  0.2156648  )

     number of k points=   576 (tetrahedron method)
                       cart. coord. in units 2pi/alat
        k(    1) = (   0.0104167   0.0100723  -0.1059398), wk =   0.0034722
        k(    2) = (   0.0104167   0.0302169  -0.1059398), wk =   0.0034722
        k(    3) = (   0.0104167   0.0503615  -0.1059398), wk =   0.0034722
        k(    4) = (   0.0104167   0.0705061  -0.1059398), wk =   0.0034722
        k(    5) = (   0.0104167   0.0906507  -0.1059398), wk =   0.0034722
        k(    6) = (   0.0104167   0.1107952  -0.1059398), wk =   0.0034722
        k(    7) = (   0.0104167   0.1309398  -0.1059398), wk =   0.0034722
        k(    8) = (   0.0104167   0.1510844  -0.1059398), wk =   0.0034722
        k(    9) = (   0.0104167   0.1712290  -0.1059398), wk =   0.0034722
        k(   10) = (   0.0104167   0.1913736  -0.1059398), wk =   0.0034722
        k(   11) = (   0.0104167   0.2115182  -0.1059398), wk =   0.0034722
        k(   12) = (   0.0104167   0.2316628  -0.1059398), wk =   0.0034722
        k(   13) = (   0.0104167   0.2518074  -0.1059398), wk =   0.0034722
        k(   14) = (   0.0104167   0.2719520  -0.1059398), wk =   0.0034722
        k(   15) = (   0.0104167   0.2920965  -0.1059398), wk =   0.0034722
        k(   16) = (   0.0104167   0.3122411  -0.1059398), wk =   0.0034722
        k(   17) = (   0.0104167   0.3323857  -0.1059398), wk =   0.0034722
        k(   18) = (   0.0104167   0.3525303  -0.1059398), wk =   0.0034722
        k(   19) = (   0.0104167   0.3726749  -0.1059398), wk =   0.0034722
        k(   20) = (   0.0104167   0.3928195  -0.1059398), wk =   0.0034722
        k(   21) = (   0.0104167   0.4129641  -0.1059398), wk =   0.0034722
        k(   22) = (   0.0104167   0.4331087  -0.1059398), wk =   0.0034722
        k(   23) = (   0.0104167   0.4532533  -0.1059398), wk =   0.0034722
        k(   24) = (   0.0104167   0.4733978  -0.1059398), wk =   0.0034722
        k(   25) = (   0.0312500   0.0100723  -0.1059398), wk =   0.0034722
        k(   26) = (   0.0312500   0.0302169  -0.1059398), wk =   0.0034722
        k(   27) = (   0.0312500   0.0503615  -0.1059398), wk =   0.0034722
        k(   28) = (   0.0312500   0.0705061  -0.1059398), wk =   0.0034722
        k(   29) = (   0.0312500   0.0906507  -0.1059398), wk =   0.0034722
        k(   30) = (   0.0312500   0.1107952  -0.1059398), wk =   0.0034722
        k(   31) = (   0.0312500   0.1309398  -0.1059398), wk =   0.0034722
        k(   32) = (   0.0312500   0.1510844  -0.1059398), wk =   0.0034722
        k(   33) = (   0.0312500   0.1712290  -0.1059398), wk =   0.0034722
        k(   34) = (   0.0312500   0.1913736  -0.1059398), wk =   0.0034722
        k(   35) = (   0.0312500   0.2115182  -0.1059398), wk =   0.0034722
        k(   36) = (   0.0312500   0.2316628  -0.1059398), wk =   0.0034722
        k(   37) = (   0.0312500   0.2518074  -0.1059398), wk =   0.0034722
        k(   38) = (   0.0312500   0.2719520  -0.1059398), wk =   0.0034722
        k(   39) = (   0.0312500   0.2920965  -0.1059398), wk =   0.0034722
        k(   40) = (   0.0312500   0.3122411  -0.1059398), wk =   0.0034722
        k(   41) = (   0.0312500   0.3323857  -0.1059398), wk =   0.0034722
        k(   42) = (   0.0312500   0.3525303  -0.1059398), wk =   0.0034722
        k(   43) = (   0.0312500   0.3726749  -0.1059398), wk =   0.0034722
        k(   44) = (   0.0312500   0.3928195  -0.1059398), wk =   0.0034722
        k(   45) = (   0.0312500   0.4129641  -0.1059398), wk =   0.0034722
        k(   46) = (   0.0312500   0.4331087  -0.1059398), wk =   0.0034722
        k(   47) = (   0.0312500   0.4532533  -0.1059398), wk =   0.0034722
        k(   48) = (   0.0312500   0.4733978  -0.1059398), wk =   0.0034722
        k(   49) = (   0.0520833   0.0100723  -0.1059398), wk =   0.0034722
        k(   50) = (   0.0520833   0.0302169  -0.1059398), wk =   0.0034722
        k(   51) = (   0.0520833   0.0503615  -0.1059398), wk =   0.0034722
        k(   52) = (   0.0520833   0.0705061  -0.1059398), wk =   0.0034722
        k(   53) = (   0.0520833   0.0906507  -0.1059398), wk =   0.0034722
        k(   54) = (   0.0520833   0.1107952  -0.1059398), wk =   0.0034722
        k(   55) = (   0.0520833   0.1309398  -0.1059398), wk =   0.0034722
        k(   56) = (   0.0520833   0.1510844  -0.1059398), wk =   0.0034722
        k(   57) = (   0.0520833   0.1712290  -0.1059398), wk =   0.0034722
        k(   58) = (   0.0520833   0.1913736  -0.1059398), wk =   0.0034722
        k(   59) = (   0.0520833   0.2115182  -0.1059398), wk =   0.0034722
        k(   60) = (   0.0520833   0.2316628  -0.1059398), wk =   0.0034722
[...]
        k(  562) = (   0.4895833   0.1913736  -0.1059398), wk =   0.0034722
        k(  563) = (   0.4895833   0.2115182  -0.1059398), wk =   0.0034722
        k(  564) = (   0.4895833   0.2316628  -0.1059398), wk =   0.0034722
        k(  565) = (   0.4895833   0.2518074  -0.1059398), wk =   0.0034722
        k(  566) = (   0.4895833   0.2719520  -0.1059398), wk =   0.0034722
        k(  567) = (   0.4895833   0.2920965  -0.1059398), wk =   0.0034722
        k(  568) = (   0.4895833   0.3122411  -0.1059398), wk =   0.0034722
        k(  569) = (   0.4895833   0.3323857  -0.1059398), wk =   0.0034722
        k(  570) = (   0.4895833   0.3525303  -0.1059398), wk =   0.0034722
        k(  571) = (   0.4895833   0.3726749  -0.1059398), wk =   0.0034722
        k(  572) = (   0.4895833   0.3928195  -0.1059398), wk =   0.0034722
        k(  573) = (   0.4895833   0.4129641  -0.1059398), wk =   0.0034722
        k(  574) = (   0.4895833   0.4331087  -0.1059398), wk =   0.0034722
        k(  575) = (   0.4895833   0.4532533  -0.1059398), wk =   0.0034722
        k(  576) = (   0.4895833   0.4733978  -0.1059398), wk =   0.0034722

                       cryst. coord.
        k(    1) = (   0.0104167   0.0104167  -0.5000000), wk =   0.0034722
        k(    2) = (   0.0104167   0.0312500  -0.5000000), wk =   0.0034722
        k(    3) = (   0.0104167   0.0520833  -0.5000000), wk =   0.0034722
        k(    4) = (   0.0104167   0.0729167  -0.5000000), wk =   0.0034722
        k(    5) = (   0.0104167   0.0937500  -0.5000000), wk =   0.0034722
        k(    6) = (   0.0104167   0.1145833  -0.5000000), wk =   0.0034722
        k(    7) = (   0.0104167   0.1354167  -0.5000000), wk =   0.0034722
        k(    8) = (   0.0104167   0.1562500  -0.5000000), wk =   0.0034722
        k(    9) = (   0.0104167   0.1770833  -0.5000000), wk =   0.0034722
        k(   10) = (   0.0104167   0.1979167  -0.5000000), wk =   0.0034722
        k(   11) = (   0.0104167   0.2187500  -0.5000000), wk =   0.0034722
        k(   12) = (   0.0104167   0.2395833  -0.5000000), wk =   0.0034722
        k(   13) = (   0.0104167   0.2604167  -0.5000000), wk =   0.0034722
        k(   14) = (   0.0104167   0.2812500  -0.5000000), wk =   0.0034722
        k(   15) = (   0.0104167   0.3020833  -0.5000000), wk =   0.0034722
        k(   16) = (   0.0104167   0.3229167  -0.5000000), wk =   0.0034722
        k(   17) = (   0.0104167   0.3437500  -0.5000000), wk =   0.0034722
        k(   18) = (   0.0104167   0.3645833  -0.5000000), wk =   0.0034722
        k(   19) = (   0.0104167   0.3854167  -0.5000000), wk =   0.0034722
        k(   20) = (   0.0104167   0.4062500  -0.5000000), wk =   0.0034722
        k(   21) = (   0.0104167   0.4270833  -0.5000000), wk =   0.0034722
        k(   22) = (   0.0104167   0.4479167  -0.5000000), wk =   0.0034722
        k(   23) = (   0.0104167   0.4687500  -0.5000000), wk =   0.0034722
        k(   24) = (   0.0104167   0.4895833  -0.5000000), wk =   0.0034722
        k(   25) = (   0.0312500   0.0104167  -0.5000000), wk =   0.0034722
        k(   26) = (   0.0312500   0.0312500  -0.5000000), wk =   0.0034722
        k(   27) = (   0.0312500   0.0520833  -0.5000000), wk =   0.0034722
        k(   28) = (   0.0312500   0.0729167  -0.5000000), wk =   0.0034722
        k(   29) = (   0.0312500   0.0937500  -0.5000000), wk =   0.0034722
        k(   30) = (   0.0312500   0.1145833  -0.5000000), wk =   0.0034722
        k(   31) = (   0.0312500   0.1354167  -0.5000000), wk =   0.0034722
        k(   32) = (   0.0312500   0.1562500  -0.5000000), wk =   0.0034722
        k(   33) = (   0.0312500   0.1770833  -0.5000000), wk =   0.0034722
        k(   34) = (   0.0312500   0.1979167  -0.5000000), wk =   0.0034722
        k(   35) = (   0.0312500   0.2187500  -0.5000000), wk =   0.0034722
        k(   36) = (   0.0312500   0.2395833  -0.5000000), wk =   0.0034722
        k(   37) = (   0.0312500   0.2604167  -0.5000000), wk =   0.0034722
        k(   38) = (   0.0312500   0.2812500  -0.5000000), wk =   0.0034722
        k(   39) = (   0.0312500   0.3020833  -0.5000000), wk =   0.0034722
        k(   40) = (   0.0312500   0.3229167  -0.5000000), wk =   0.0034722
        k(   41) = (   0.0312500   0.3437500  -0.5000000), wk =   0.0034722
        k(   42) = (   0.0312500   0.3645833  -0.5000000), wk =   0.0034722
        k(   43) = (   0.0312500   0.3854167  -0.5000000), wk =   0.0034722
        k(   44) = (   0.0312500   0.4062500  -0.5000000), wk =   0.0034722
        k(   45) = (   0.0312500   0.4270833  -0.5000000), wk =   0.0034722
        k(   46) = (   0.0312500   0.4479167  -0.5000000), wk =   0.0034722
        k(   47) = (   0.0312500   0.4687500  -0.5000000), wk =   0.0034722
        k(   48) = (   0.0312500   0.4895833  -0.5000000), wk =   0.0034722
        k(   49) = (   0.0520833   0.0104167  -0.5000000), wk =   0.0034722
        k(   50) = (   0.0520833   0.0312500  -0.5000000), wk =   0.0034722
        k(   51) = (   0.0520833   0.0520833  -0.5000000), wk =   0.0034722
        k(   52) = (   0.0520833   0.0729167  -0.5000000), wk =   0.0034722
        k(   53) = (   0.0520833   0.0937500  -0.5000000), wk =   0.0034722
        k(   54) = (   0.0520833   0.1145833  -0.5000000), wk =   0.0034722
        k(   55) = (   0.0520833   0.1354167  -0.5000000), wk =   0.0034722
        k(   56) = (   0.0520833   0.1562500  -0.5000000), wk =   0.0034722
        k(   57) = (   0.0520833   0.1770833  -0.5000000), wk =   0.0034722
        k(   58) = (   0.0520833   0.1979167  -0.5000000), wk =   0.0034722
        k(   59) = (   0.0520833   0.2187500  -0.5000000), wk =   0.0034722
        k(   60) = (   0.0520833   0.2395833  -0.5000000), wk =   0.0034722
[...]
        k(  562) = (   0.4895833   0.1979167  -0.5000000), wk =   0.0034722
        k(  563) = (   0.4895833   0.2187500  -0.5000000), wk =   0.0034722
        k(  564) = (   0.4895833   0.2395833  -0.5000000), wk =   0.0034722
        k(  565) = (   0.4895833   0.2604167  -0.5000000), wk =   0.0034722
        k(  566) = (   0.4895833   0.2812500  -0.5000000), wk =   0.0034722
        k(  567) = (   0.4895833   0.3020833  -0.5000000), wk =   0.0034722
        k(  568) = (   0.4895833   0.3229167  -0.5000000), wk =   0.0034722
        k(  569) = (   0.4895833   0.3437500  -0.5000000), wk =   0.0034722
        k(  570) = (   0.4895833   0.3645833  -0.5000000), wk =   0.0034722
        k(  571) = (   0.4895833   0.3854167  -0.5000000), wk =   0.0034722
        k(  572) = (   0.4895833   0.4062500  -0.5000000), wk =   0.0034722
        k(  573) = (   0.4895833   0.4270833  -0.5000000), wk =   0.0034722
        k(  574) = (   0.4895833   0.4479167  -0.5000000), wk =   0.0034722
        k(  575) = (   0.4895833   0.4687500  -0.5000000), wk =   0.0034722
        k(  576) = (   0.4895833   0.4895833  -0.5000000), wk =   0.0034722

     Initial potential from superposition of free atoms

     starting charge   59.81470, renormalised to   60.00000

     negative rho (up, down):  4.789E-04 0.000E+00
     Starting wfcs are random

     Self-consistent Calculation

     iteration #  1     ecut=    50.00 Ry     beta= 0.70
     Davidson diagonalization with overlap
     ethr =  1.00E-02,  avg # of iterations = 10.0

     Threshold (ethr) on eigenvalues was too large:
     Diagonalizing with lowered threshold

     Davidson diagonalization with overlap
     c_bands:  2 eigenvalues not converged
     c_bands:  1 eigenvalues not converged
     ethr =  5.80E-05,  avg # of iterations = 10.5

     negative rho (up, down):  3.719E-05 0.000E+00

     total energy              =    -632.71463241 Ry
     estimated scf accuracy    <       0.02880206 Ry

[...]

     iteration #  3     ecut=    50.00 Ry     beta= 0.70
     Davidson diagonalization with overlap
     c_bands:  1 eigenvalues not converged
     ethr =  1.75E-05,  avg # of iterations =  7.6

[...]

     negative rho (up, down):  9.127E-08 0.000E+00

[...]

     iteration #  6     ecut=    50.00 Ry     beta= 0.70
     Davidson diagonalization with overlap
     c_bands:  1 eigenvalues not converged
     ethr =  1.10E-07,  avg # of iterations =  2.2

[...]

     total energy              =    -632.72087775 Ry
     estimated scf accuracy    <          7.8E-09 Ry

     iteration # 10     ecut=    50.00 Ry     beta= 0.70
     Davidson diagonalization with overlap
     ethr =  1.30E-11,  avg # of iterations =  2.2

     End of self-consistent calculation

          k = 0.0104 0.0101-0.1059 ( 14896 PWs)   bands (ev):

   -36.6551 -36.6545 -36.6532 -36.6529 -36.6391 -36.6387 -36.6296 -36.6292
   -36.6254 -36.6246 -24.6688 -24.6622 -24.6585 -24.6578 -24.6504 -24.6464
   -24.6369 -24.6368 -24.6361 -24.6328 -12.5362 -11.1023  -7.0058  -5.7705
    -3.3708  -3.0409  -2.9325  -1.6353  -1.5934  -0.9708   1.5870   2.6891
     3.3258   3.7265   3.7642   4.2409   4.6602   4.7814   5.0390   5.3735
     5.5604   5.8967   7.2480   7.5188   7.8908   8.0727   8.1689   8.5459
     9.2828   9.6507   9.7727  10.0671  10.5525  11.2224  11.3816  11.4540
    11.7997  11.9398  12.1058  12.3075

     occupation numbers
     1.0000   1.0000   1.0000   1.0000   1.0000   1.0000   1.0000   1.0000
     1.0000   1.0000   1.0000   1.0000   1.0000   1.0000   1.0000   1.0000
     1.0000   1.0000   1.0000   1.0000   1.0000   1.0000   1.0000   1.0000
     1.0000   1.0000   1.0000   1.0000   1.0000   1.0000   0.0000   0.0000
     0.0000   0.0000   0.0000   0.0000   0.0000   0.0000   0.0000   0.0000
     0.0000   0.0000   0.0000   0.0000   0.0000   0.0000   0.0000   0.0000
     0.0000   0.0000   0.0000   0.0000   0.0000   0.0000   0.0000   0.0000
     0.0000   0.0000   0.0000   0.0000

[...]

          k = 0.4896 0.4734-0.1059 ( 14952 PWs)   bands (ev):

   -36.6537 -36.6537 -36.6535 -36.6534 -36.6380 -36.6379 -36.6301 -36.6300
   -36.6244 -36.6243 -24.6643 -24.6642 -24.6603 -24.6602 -24.6467 -24.6466
   -24.6391 -24.6391 -24.6326 -24.6325 -10.8125 -10.8094  -7.4669  -7.4638
    -4.7625  -4.7554  -3.4932  -3.4866  -1.8185  -1.8138   2.6836   2.6884
     3.9271   3.9327   5.3235   5.3353   6.6852   6.6871   7.2275   7.2480
     7.6463   7.6681   8.1072   8.1445   8.3499   8.3876   8.5547   8.5904
     9.1321   9.1371   9.5422   9.5944   9.9258   9.9393   9.9668  10.0124
    10.8096  10.8305  11.4997  11.5126

     occupation numbers
     1.0000   1.0000   1.0000   1.0000   1.0000   1.0000   1.0000   1.0000
     1.0000   1.0000   1.0000   1.0000   1.0000   1.0000   1.0000   1.0000
     1.0000   1.0000   1.0000   1.0000   1.0000   1.0000   1.0000   1.0000
     1.0000   1.0000   1.0000   1.0000   1.0000   1.0000   0.0000   0.0000
     0.0000   0.0000   0.0000   0.0000   0.0000   0.0000   0.0000   0.0000
     0.0000   0.0000   0.0000   0.0000   0.0000   0.0000   0.0000   0.0000
     0.0000   0.0000   0.0000   0.0000   0.0000   0.0000   0.0000   0.0000
     0.0000   0.0000   0.0000   0.0000

     the Fermi energy is     1.0202 ev

!    total energy              =    -632.72087775 Ry
     estimated scf accuracy    <          3.8E-10 Ry

     The total energy is the sum of the following terms:
     one-electron contribution =   -2665.03976405 Ry
     hartree contribution      =    1330.29856605 Ry
     xc contribution           =     -71.68931155 Ry
     ewald contribution        =     773.70963180 Ry

     convergence has been achieved in  10 iterations

     Writing output data file ./work/GeTe-mono.save/

     General routines

     Parallel routines

   This run was terminated on:   0:33:41  13Sep2021

   JOB DONE.