     Program PWSCF v.6.7MaX starts on 13Sep2021 at  7:23: 0

     R & G space division:  proc/nbgrp/npool/nimage =      32
     Waiting for input...
     Reading input from standard input

     Current dimensions of program PWSCF are:
     Max number of different atomic species (ntypx) = 10
     Max number of k-points (npk) =  40000
     Max angular momentum in pseudopotentials (lmaxx) =  3
     Message from routine read_pp_mesh:
     mesh size missing, using the one in header
     Message from routine read_pp_mesh:
     mesh size missing, using the one in header

     Subspace diagonalization in iterative solution of the eigenvalue problem:
     a serial algorithm will be used

     Message from routine setup:
     no reason to have ecutrho>4*ecutwfc
     Message from routine setup:
     using ibrav=0 with symmetry is DISCOURAGED, use correct ibrav instead

     bravais-lattice index     =            0
     lattice parameter (alat)  =       8.0079  a.u.
     unit-cell volume          =    2506.4848 (a.u.)^3
     number of atoms/cell      =            4
     number of atomic types    =            2
     number of electrons       =        60.00
     number of Kohn-Sham states=           60
     kinetic-energy cutoff     =      50.0000  Ry
     charge density cutoff     =     600.0000  Ry
     scf convergence threshold =      1.0E-09
     mixing beta               =       0.7000
     number of iterations used =            8  plain     mixing
     Exchange-correlation= PBE
                           (   1   4   3   4   0   0   0)

     celldm(1)=   8.007887  celldm(2)=   0.000000  celldm(3)=   0.000000
     celldm(4)=   0.000000  celldm(5)=   0.000000  celldm(6)=   0.000000

     crystal axes: (cart. coord. in units of alat)
               a(1) = (   1.000000   0.000000   0.000000 )
               a(2) = (   0.000000   1.034190   0.000000 )
               a(3) = (   0.000000   0.000000   4.719662 )

     reciprocal axes: (cart. coord. in units 2 pi/alat)
               b(1) = (  1.000000  0.000000  0.000000 )
               b(2) = (  0.000000  0.966940  0.000000 )
               b(3) = (  0.000000  0.000000  0.211880 )

     PseudoPot. # 1 for Ge read from file:
     ../../pseudo/Ge_ONCV_PBE-1.2.upf
     MD5 check sum: 9f45083245c564cb2163622d60d05ca9
     Pseudo is Norm-conserving, Zval = 14.0
     Generated using ONCVPSP code by D. R. Hamann
     Using radial grid of  602 points,  6 beta functions with:
                l(1) =   0
                l(2) =   0
                l(3) =   1
                l(4) =   1
                l(5) =   2
                l(6) =   2

     PseudoPot. # 2 for Te read from file:
     ../../pseudo/Te_ONCV_PBE-1.2.upf
     MD5 check sum: dd4de4dac1e38587f63aaf3700bb29d3
     Pseudo is Norm-conserving, Zval = 16.0
     Generated using ONCVPSP code by D. R. Hamann
     Using radial grid of  602 points,  6 beta functions with:
                l(1) =   0
                l(2) =   0
                l(3) =   1
                l(4) =   1
                l(5) =   2
                l(6) =   2

     atomic species   valence    mass     pseudopotential
        Ge            14.00    72.63000     Ge( 1.00)
        Te            16.00   127.60000     Te( 1.00)

      2 Sym. Ops. (no inversion) found

   Cartesian axes

     site n.     atom                  positions (alat units)
         1           Ge  tau(   1) = (   0.0000000   0.4852822   1.6614487  )
         2           Ge  tau(   2) = (   0.5000000   1.0023560   1.0938804  )
         3           Te  tau(   3) = (   0.5000000   0.0318432   1.7374834  )
         4           Te  tau(   4) = (   0.0000000   0.5488986   1.0178653  )

     number of k points=    81
                       cart. coord. in units 2pi/alat
        k(    1) = (   0.0277778   0.0268595  -0.1059398), wk =   0.0246914
        k(    2) = (   0.0277778   0.0805784  -0.1059398), wk =   0.0246914
        k(    3) = (   0.0277778   0.1342973  -0.1059398), wk =   0.0246914
        k(    4) = (   0.0277778   0.1880162  -0.1059398), wk =   0.0246914
        k(    5) = (   0.0277778   0.2417351  -0.1059398), wk =   0.0246914
        k(    6) = (   0.0277778   0.2954540  -0.1059398), wk =   0.0246914
        k(    7) = (   0.0277778   0.3491729  -0.1059398), wk =   0.0246914
        k(    8) = (   0.0277778   0.4028918  -0.1059398), wk =   0.0246914
        k(    9) = (   0.0277778   0.4566107  -0.1059398), wk =   0.0246914
        k(   10) = (   0.0833333   0.0268595  -0.1059398), wk =   0.0246914
        k(   11) = (   0.0833333   0.0805784  -0.1059398), wk =   0.0246914
        k(   12) = (   0.0833333   0.1342973  -0.1059398), wk =   0.0246914
        k(   13) = (   0.0833333   0.1880162  -0.1059398), wk =   0.0246914
        k(   14) = (   0.0833333   0.2417351  -0.1059398), wk =   0.0246914
        k(   15) = (   0.0833333   0.2954540  -0.1059398), wk =   0.0246914
        k(   16) = (   0.0833333   0.3491729  -0.1059398), wk =   0.0246914
        k(   17) = (   0.0833333   0.4028918  -0.1059398), wk =   0.0246914
        k(   18) = (   0.0833333   0.4566107  -0.1059398), wk =   0.0246914
        k(   19) = (   0.1388889   0.0268595  -0.1059398), wk =   0.0246914
        k(   20) = (   0.1388889   0.0805784  -0.1059398), wk =   0.0246914
        k(   21) = (   0.1388889   0.1342973  -0.1059398), wk =   0.0246914
        k(   22) = (   0.1388889   0.1880162  -0.1059398), wk =   0.0246914
        k(   23) = (   0.1388889   0.2417351  -0.1059398), wk =   0.0246914
        k(   24) = (   0.1388889   0.2954540  -0.1059398), wk =   0.0246914
        k(   25) = (   0.1388889   0.3491729  -0.1059398), wk =   0.0246914
        k(   26) = (   0.1388889   0.4028918  -0.1059398), wk =   0.0246914
        k(   27) = (   0.1388889   0.4566107  -0.1059398), wk =   0.0246914
        k(   28) = (   0.1944444   0.0268595  -0.1059398), wk =   0.0246914
        k(   29) = (   0.1944444   0.0805784  -0.1059398), wk =   0.0246914
        k(   30) = (   0.1944444   0.1342973  -0.1059398), wk =   0.0246914
        k(   31) = (   0.1944444   0.1880162  -0.1059398), wk =   0.0246914
        k(   32) = (   0.1944444   0.2417351  -0.1059398), wk =   0.0246914
        k(   33) = (   0.1944444   0.2954540  -0.1059398), wk =   0.0246914
        k(   34) = (   0.1944444   0.3491729  -0.1059398), wk =   0.0246914
        k(   35) = (   0.1944444   0.4028918  -0.1059398), wk =   0.0246914
        k(   36) = (   0.1944444   0.4566107  -0.1059398), wk =   0.0246914
        k(   37) = (   0.2500000   0.0268595  -0.1059398), wk =   0.0246914
        k(   38) = (   0.2500000   0.0805784  -0.1059398), wk =   0.0246914
        k(   39) = (   0.2500000   0.1342973  -0.1059398), wk =   0.0246914
        k(   40) = (   0.2500000   0.1880162  -0.1059398), wk =   0.0246914
        k(   41) = (   0.2500000   0.2417351  -0.1059398), wk =   0.0246914
        k(   42) = (   0.2500000   0.2954540  -0.1059398), wk =   0.0246914
        k(   43) = (   0.2500000   0.3491729  -0.1059398), wk =   0.0246914
        k(   44) = (   0.2500000   0.4028918  -0.1059398), wk =   0.0246914
        k(   45) = (   0.2500000   0.4566107  -0.1059398), wk =   0.0246914
        k(   46) = (   0.3055556   0.0268595  -0.1059398), wk =   0.0246914
        k(   47) = (   0.3055556   0.0805784  -0.1059398), wk =   0.0246914
        k(   48) = (   0.3055556   0.1342973  -0.1059398), wk =   0.0246914
        k(   49) = (   0.3055556   0.1880162  -0.1059398), wk =   0.0246914
        k(   50) = (   0.3055556   0.2417351  -0.1059398), wk =   0.0246914
        k(   51) = (   0.3055556   0.2954540  -0.1059398), wk =   0.0246914
        k(   52) = (   0.3055556   0.3491729  -0.1059398), wk =   0.0246914
        k(   53) = (   0.3055556   0.4028918  -0.1059398), wk =   0.0246914
        k(   54) = (   0.3055556   0.4566107  -0.1059398), wk =   0.0246914
        k(   55) = (   0.3611111   0.0268595  -0.1059398), wk =   0.0246914
        k(   56) = (   0.3611111   0.0805784  -0.1059398), wk =   0.0246914
        k(   57) = (   0.3611111   0.1342973  -0.1059398), wk =   0.0246914
        k(   58) = (   0.3611111   0.1880162  -0.1059398), wk =   0.0246914
        k(   59) = (   0.3611111   0.2417351  -0.1059398), wk =   0.0246914
        k(   60) = (   0.3611111   0.2954540  -0.1059398), wk =   0.0246914
[...]
        k(   67) = (   0.4166667   0.1880162  -0.1059398), wk =   0.0246914
        k(   68) = (   0.4166667   0.2417351  -0.1059398), wk =   0.0246914
        k(   69) = (   0.4166667   0.2954540  -0.1059398), wk =   0.0246914
        k(   70) = (   0.4166667   0.3491729  -0.1059398), wk =   0.0246914
        k(   71) = (   0.4166667   0.4028918  -0.1059398), wk =   0.0246914
        k(   72) = (   0.4166667   0.4566107  -0.1059398), wk =   0.0246914
        k(   73) = (   0.4722222   0.0268595  -0.1059398), wk =   0.0246914
        k(   74) = (   0.4722222   0.0805784  -0.1059398), wk =   0.0246914
        k(   75) = (   0.4722222   0.1342973  -0.1059398), wk =   0.0246914
        k(   76) = (   0.4722222   0.1880162  -0.1059398), wk =   0.0246914
        k(   77) = (   0.4722222   0.2417351  -0.1059398), wk =   0.0246914
        k(   78) = (   0.4722222   0.2954540  -0.1059398), wk =   0.0246914
        k(   79) = (   0.4722222   0.3491729  -0.1059398), wk =   0.0246914
        k(   80) = (   0.4722222   0.4028918  -0.1059398), wk =   0.0246914
        k(   81) = (   0.4722222   0.4566107  -0.1059398), wk =   0.0246914

     Initial potential from superposition of free atoms

     starting charge   59.81470, renormalised to   60.00000

     negative rho (up, down):  4.789E-04 0.000E+00
     Starting wfcs are random

     Self-consistent Calculation

     iteration #  1     ecut=    50.00 Ry     beta= 0.70
     Davidson diagonalization with overlap
     ethr =  1.00E-02,  avg # of iterations = 10.0

     Threshold (ethr) on eigenvalues was too large:
     Diagonalizing with lowered threshold

     Davidson diagonalization with overlap
     c_bands:  1 eigenvalues not converged
     ethr =  5.82E-05,  avg # of iterations = 10.2

     negative rho (up, down):  3.722E-05 0.000E+00

     total energy              =    -632.71464096 Ry
     estimated scf accuracy    <       0.02879491 Ry

[...]

     iteration #  5     ecut=    50.00 Ry     beta= 0.70
     Davidson diagonalization with overlap
     c_bands:  1 eigenvalues not converged
     ethr =  6.64E-07,  avg # of iterations =  5.7

     negative rho (up, down):  1.003E-07 0.000E+00

[...]

     total energy              =    -632.72087676 Ry
     estimated scf accuracy    <          7.7E-09 Ry

     iteration # 10     ecut=    50.00 Ry     beta= 0.70
     Davidson diagonalization with overlap
     ethr =  1.28E-11,  avg # of iterations =  2.3

     End of self-consistent calculation

          k = 0.0278 0.0269-0.1059 ( 14910 PWs)   bands (ev):

   -36.6551 -36.6545 -36.6531 -36.6529 -36.6390 -36.6386 -36.6296 -36.6292
   -36.6254 -36.6246 -24.6688 -24.6623 -24.6586 -24.6578 -24.6504 -24.6464
   -24.6370 -24.6369 -24.6361 -24.6328 -12.5280 -11.0975  -7.0313  -5.7904
    -3.3856  -3.0412  -2.9048  -1.6623  -1.5247  -0.9747   1.5806   2.7204
     3.2876   3.7086   3.7411   4.2512   4.6197   4.7701   5.0333   5.3679
     5.5550   5.9008   7.2191   7.4870   7.8900   8.1142   8.2562   8.5814
     9.3479   9.6312   9.8658  10.0449  10.5690  11.1579  11.4048  11.4304
    11.7970  11.8975  11.9509  12.2488

[...]

          k = 0.4722 0.4566-0.1059 ( 14946 PWs)   bands (ev):

   -36.6537 -36.6537 -36.6535 -36.6534 -36.6379 -36.6378 -36.6301 -36.6299
   -36.6244 -36.6243 -24.6643 -24.6642 -24.6603 -24.6602 -24.6468 -24.6467
   -24.6392 -24.6391 -24.6327 -24.6326 -10.8287 -10.8074  -7.4845  -7.4631
    -4.7622  -4.7126  -3.4844  -3.4383  -1.8357  -1.8020   2.6669   2.7004
     3.9176   3.9564   5.2383   5.3224   6.6801   6.6917   7.1030   7.2356
     7.5416   7.6734   7.9645   8.1690   8.3310   8.5136   8.5664   8.6815
     9.1392   9.1504   9.3657   9.6092   9.9296   9.9466  10.0756  10.2100
    10.7941  10.9260  11.4430  11.5161

     highest occupied, lowest unoccupied level (ev):     0.0851    1.0353

!    total energy              =    -632.72087677 Ry
     estimated scf accuracy    <          3.7E-10 Ry

     The total energy is the sum of the following terms:
     one-electron contribution =   -2665.03976041 Ry
     hartree contribution      =    1330.29856967 Ry
     xc contribution           =     -71.68931783 Ry
     ewald contribution        =     773.70963180 Ry

     convergence has been achieved in  10 iterations

     Writing output data file ./work/GeTe-mono.save/

     General routines

     Parallel routines

   This run was terminated on:   7:24:46  13Sep2021

   JOB DONE.